param L := 196;

set MODULI := M1 M2 M3 M4 M5 M6 M7 M8 M9 ;

param d :=
  M1 4
  M2 2
  M3 6
  M4 10
  M5 8
  M6 5
  M7 10
  M8 10
  M9 7
;

param l :=
  M1 49
  M2 23
  M3 19
  M4 16
  M5 25
  M6 23
  M7 47
  M8 24
  M9 22
;
